(set-logic ALL)
(set-option :produce-models true)
(declare-sort BoundSet 0)
(declare-sort UnboundSet 0)
(declare-fun IsHaunted (BoundSet) Bool)
(assert (not (=> (exists ((a BoundSet)) (IsHaunted a)) (exists ((b BoundSet)) (IsHaunted b)))))
(check-sat)
(get-model)